# Data file for the Farmer Jones LP.

set Crops := corn  wheat;

param Yield :=
corn  10
wheat 25;

param LaborHrs :=
corn   4
wheat 10;

param Price :=
corn   3
wheat  4;

param LandAvlbl := 7;
param TotalLaborHrs := 40;

param MinCrop :=
corn   30
wheat   0;
